Normalized Data/p03_18_normalized_splitx10_0.vrp
NAME:p03_18_NORMALIZED_splitx10_
BEST_KNOWN: 0
COMMENT: 0
DIMENSION: 408
CAPACITY: 1000
EDGE_WEIGHT_FORMAT: FUNCTION
EDGE_WEIGHT_TYPE: EXACT_2D
NODE_COORD_SECTION
1 0.00000 0.00000
2 16 -31
3 16 -31
4 16 -31
5 16 -31
6 16 -31
7 -2 25
8 -2 25
9 -2 25
10 -2 25
11 -2 25
12 -28 50
13 -28 50
14 -28 50
15 -28 50
16 -19 20
17 -19 20
18 -34 21
19 -34 21
20 -34 21
21 -34 21
22 12 25
23 12 25
24 12 25
25 12 25
26 12 25
27 26 38
28 26 38
29 26 38
30 26 38
31 26 38
32 -50 -5
33 -50 -5
34 -50 -5
35 -50 -5
36 45 18
37 45 18
38 45 18
39 45 18
40 45 18
41 45 18
42 45 18
43 8 8
44 8 8
45 8 8
46 -35 15
47 -35 15
48 -35 15
49 28 10
50 28 10
51 28 10
52 28 10
53 -16 -41
54 -16 -41
55 -16 -41
56 -16 -41
57 46 7
58 46 7
59 46 7
60 46 7
61 46 7
62 -35 50
63 -35 50
64 -35 50
65 -35 50
66 -35 50
67 -35 50
68 -27 -23
69 -27 -23
70 -27 -23
71 -27 -23
72 -27 -23
73 -33 28
74 -33 28
75 -33 28
76 -24 23
77 -24 23
78 -24 23
79 -24 23
80 38 -21
81 38 -21
82 38 -21
83 38 -21
84 38 -21
85 -7 30
86 -7 30
87 -7 30
88 -7 30
89 -7 30
90 -7 30
91 -7 30
92 -7 -22
93 -7 -22
94 -12 -12
95 -12 -12
96 -12 -12
97 -12 -12
98 -12 -12
99 -12 -12
100 -33 -27
101 -33 -27
102 -29 -3
103 -29 -3
104 -29 -3
105 -29 -3
106 -29 -3
107 38 22
108 38 22
109 38 22
110 38 22
111 38 22
112 23 -27
113 23 -27
114 23 -27
115 23 -27
116 23 -27
117 23 -27
118 49 44
119 44 42
120 44 42
121 19 -50
122 19 -50
123 19 -50
124 19 -50
125 19 -50
126 19 -50
127 19 -50
128 4 -10
129 4 -10
130 4 -10
131 4 -10
132 -26 -36
133 -26 -36
134 -26 -36
135 -26 -36
136 -26 -36
137 35 31
138 35 31
139 35 31
140 35 31
141 35 31
142 -32 -44
143 -40 50
144 -40 50
145 -40 50
146 -40 50
147 14 -17
148 14 -17
149 14 -17
150 14 -17
151 14 -17
152 14 -17
153 13 13
154 -17 -3
155 -17 -3
156 -17 -3
157 -17 -3
158 0 -9
159 0 -9
160 0 -9
161 0 -9
162 0 -9
163 0 -9
164 -32 -27
165 -32 -27
166 -32 -27
167 -32 -27
168 10 34
169 10 34
170 10 34
171 10 34
172 10 34
173 -42 43
174 -42 43
175 -42 43
176 48 42
177 48 42
178 48 42
179 23 23
180 23 23
181 35 10
182 35 10
183 35 10
184 35 10
185 35 10
186 35 10
187 35 10
188 3 19
189 3 19
190 3 19
191 -50 3
192 -50 3
193 -50 3
194 -1 3
195 -1 3
196 -1 3
197 -1 3
198 19 30
199 19 30
200 19 30
201 13 -18
202 13 -18
203 13 -18
204 40 -5
205 40 -5
206 40 -5
207 40 -5
208 40 -5
209 40 -5
210 2 -6
211 2 -6
212 2 -6
213 2 -6
214 2 -6
215 2 -6
216 -32 -47
217 -32 -47
218 -32 -47
219 -32 -47
220 -32 -47
221 39 38
222 39 38
223 39 38
224 39 38
225 39 38
226 39 38
227 39 38
228 42 44
229 42 44
230 42 44
231 -41 0
232 -41 0
233 -41 0
234 -41 0
235 -41 0
236 -43 19
237 -43 19
238 -43 19
239 -43 19
240 -43 19
241 -43 19
242 -40 5
243 -40 5
244 -40 5
245 -40 5
246 -40 5
247 48 23
248 -2 -24
249 -2 -24
250 -2 -24
251 4 47
252 4 47
253 4 47
254 24 -2
255 24 -2
256 24 -2
257 24 -2
258 17 37
259 17 37
260 3 6
261 3 6
262 -47 -44
263 -47 -44
264 -47 -44
265 -47 -44
266 -36 27
267 -36 27
268 -36 27
269 -36 27
270 -36 27
271 -36 27
272 -36 27
273 46 -48
274 46 -48
275 46 -48
276 46 -48
277 46 -48
278 46 -48
279 -45 -41
280 -45 -41
281 -45 -41
282 -45 -41
283 -45 -41
284 -44 -30
285 -44 -30
286 -44 -30
287 -44 -30
288 -20 39
289 -20 39
290 -20 39
291 -20 39
292 -20 39
293 -20 39
294 19 -34
295 19 -34
296 19 -34
297 16 3
298 16 3
299 16 3
300 16 3
301 16 3
302 16 -46
303 16 -46
304 16 -46
305 16 -46
306 -30 -32
307 -30 -32
308 -30 -32
309 -30 -32
310 -30 -32
311 -5 -41
312 -5 -41
313 -5 -41
314 41 18
315 41 18
316 -34 18
317 -34 18
318 -34 18
319 -34 18
320 -34 18
321 -11 36
322 -11 36
323 -11 36
324 -11 36
325 50 -12
326 50 -12
327 50 -12
328 -43 25
329 -43 25
330 -43 25
331 33 -4
332 33 -4
333 33 -4
334 33 -4
335 19 7
336 19 7
337 19 7
338 -25 -49
339 -25 -49
340 -25 -49
341 -25 -49
342 -25 -49
343 31 8
344 31 8
345 31 8
346 31 8
347 31 8
348 41 2
349 41 2
350 41 2
351 41 2
352 41 2
353 41 2
354 -46 -48
355 -46 -48
356 -46 -48
357 -46 -48
358 15 37
359 15 37
360 -17 3
361 32 12
362 32 12
363 32 12
364 32 12
365 32 12
366 -33 -7
367 -33 -7
368 -33 -7
369 45 -19
370 45 -19
371 45 -19
372 45 -19
373 45 -19
374 45 -19
375 -31 -30
376 -31 -30
377 -31 -30
378 -31 -30
379 -22 -5
380 -22 -5
381 -22 -5
382 -22 -5
383 -22 -5
384 -23 49
385 -23 49
386 33 -3
387 33 -3
388 33 -3
389 45 -16
390 45 -16
391 -12 48
392 -12 48
393 -12 48
394 -6 -39
395 -6 -39
396 -6 -39
397 -6 -39
398 -6 -39
399 -6 -39
400 -35 -33
401 -35 -33
402 -35 -33
403 42 46
404 42 46
405 42 46
406 42 -23
407 42 -23
408 42 -23
DEMAND_SECTION
1 0
2 100
3 10
4 10
5 10
6 10
7 200
8 10
9 10
10 10
11 10
12 200
13 200
14 10
15 10
16 200
17 10
18 200
19 10
20 10
21 10
22 200
23 100
24 50
25 10
26 10
27 200
28 100
29 10
30 10
31 10
32 200
33 50
34 10
35 10
36 200
37 100
38 50
39 10
40 10
41 10
42 10
43 200
44 200
45 50
46 200
47 50
48 10
49 200
50 200
51 10
52 10
53 200
54 200
55 10
56 10
57 200
58 200
59 50
60 10
61 10
62 200
63 200
64 10
65 10
66 10
67 10
68 200
69 100
70 50
71 10
72 10
73 200
74 10
75 10
76 200
77 200
78 50
79 10
80 200
81 50
82 10
83 10
84 10
85 200
86 200
87 50
88 10
89 10
90 10
91 10
92 200
93 10
94 200
95 100
96 10
97 10
98 10
99 10
100 100
101 50
102 200
103 200
104 50
105 10
106 10
107 100
108 10
109 10
110 10
111 10
112 200
113 200
114 10
115 10
116 10
117 10
118 200
119 200
120 200
121 200
122 100
123 50
124 10
125 10
126 10
127 10
128 200
129 200
130 10
131 10
132 200
133 100
134 50
135 10
136 10
137 200
138 200
139 10
140 10
141 10
142 200
143 100
144 50
145 10
146 10
147 200
148 50
149 10
150 10
151 10
152 10
153 200
154 200
155 100
156 50
157 10
158 200
159 200
160 50
161 10
162 10
163 10
164 200
165 10
166 10
167 10
168 200
169 50
170 10
171 10
172 10
173 100
174 50
175 10
176 200
177 200
178 50
179 200
180 100
181 200
182 200
183 50
184 10
185 10
186 10
187 10
188 200
189 200
190 50
191 200
192 200
193 10
194 100
195 10
196 10
197 10
198 200
199 100
200 10
201 200
202 200
203 100
204 200
205 50
206 10
207 10
208 10
209 10
210 200
211 200
212 10
213 10
214 10
215 10
216 200
217 200
218 10
219 10
220 10
221 200
222 100
223 50
224 10
225 10
226 10
227 10
228 200
229 50
230 10
231 200
232 100
233 10
234 10
235 10
236 100
237 50
238 10
239 10
240 10
241 10
242 200
243 50
244 10
245 10
246 10
247 200
248 200
249 100
250 10
251 200
252 200
253 100
254 100
255 50
256 10
257 10
258 200
259 200
260 200
261 100
262 200
263 200
264 10
265 10
266 200
267 100
268 50
269 10
270 10
271 10
272 10
273 200
274 200
275 10
276 10
277 10
278 10
279 200
280 100
281 50
282 10
283 10
284 200
285 100
286 10
287 10
288 100
289 50
290 10
291 10
292 10
293 10
294 100
295 10
296 10
297 200
298 100
299 50
300 10
301 10
302 200
303 10
304 10
305 10
306 200
307 200
308 10
309 10
310 10
311 200
312 200
313 100
314 200
315 50
316 200
317 100
318 10
319 10
320 10
321 200
322 200
323 50
324 10
325 100
326 50
327 10
328 200
329 200
330 10
331 200
332 200
333 50
334 10
335 200
336 10
337 10
338 200
339 10
340 10
341 10
342 10
343 100
344 10
345 10
346 10
347 10
348 200
349 200
350 10
351 10
352 10
353 10
354 100
355 50
356 10
357 10
358 200
359 10
360 200
361 200
362 100
363 10
364 10
365 10
366 200
367 200
368 50
369 100
370 50
371 10
372 10
373 10
374 10
375 100
376 50
377 10
378 10
379 100
380 50
381 10
382 10
383 10
384 200
385 100
386 200
387 50
388 10
389 100
390 50
391 200
392 200
393 100
394 200
395 50
396 10
397 10
398 10
399 10
400 200
401 200
402 10
403 200
404 100
405 50
406 200
407 200
408 50
DEPOT_SECTION
1
-1
EOF