Normalized Data/p03_18_normalized_splitx10_0.sol
407 -4 5 2 3 1 273 272 275 277 276 274 407 406 369 372 373 368 -10 7 8 6 9 383 384 14 11 13 12 292 289 290 -22 21 198 197 178 152 -23 25 257 258 358 357 170 171 168 167 169 189 -24 199 26 28 30 29 27 220 137 136 44 -42 43 188 187 259 -45 47 46 239 238 240 235 237 236 329 327 328 316 318 317 319 -67 69 71 70 68 163 164 100 99 374 376 375 377 94 -73 74 72 265 269 270 266 271 20 19 18 17 315 -81 82 83 79 80 405 370 371 389 388 325 326 324 206 205 204 256 253 -84 88 89 85 86 90 87 323 320 322 321 -91 92 398 397 394 396 395 393 311 310 312 -93 367 365 366 230 231 234 233 232 -97 96 98 95 306 309 400 401 399 284 285 286 283 -102 103 101 378 380 381 379 382 155 156 154 153 -104 105 33 32 31 34 190 192 191 243 245 241 242 244 -110 107 108 109 106 246 40 36 35 37 39 38 41 314 313 336 -115 112 114 116 111 113 146 151 149 150 147 148 -127 130 129 128 201 200 202 -132 135 134 141 218 215 217 219 216 338 341 337 340 339 -139 138 140 176 177 175 117 118 223 225 179 -161 160 158 157 159 162 209 214 212 210 211 213 -166 165 281 279 278 282 280 262 261 263 264 353 356 354 355 -196 195 194 193 16 15 77 78 76 75 359 -224 226 221 222 119 228 227 229 403 402 404 -247 301 303 304 302 124 123 121 120 122 126 125 294 293 295 -249 248 53 52 54 55 131 133 305 308 307 -250 252 251 392 391 390 -255 254 385 387 386 207 203 208 331 330 332 333 -260 363 361 362 364 360 181 182 180 344 342 -268 267 173 172 174 142 143 144 145 61 63 65 62 66 64 291 288 287 -300 299 297 296 298 48 50 49 51 334 335 -346 345 343 183 186 185 184 59 56 60 58 57 347 352 350 349 348 351 0 





OBJ=
3130.547
BEST_KNOWN=
0.000